150
[30,31,32,33,34,35,36,37,38,39,40,42,43,44,45,46,47,48,49,50,51,52,53,55,56,57,58,59,60,61,62,63,65,66,67,68,69,70,71,72,73,74,75,76,77,78,79,80,82,83,84,85,87,88,89,90,91,92,93,95,96,97,98,99,100,101,102,103,105]
[1,2,4,3,1,1,4,3,1,1,2,4,4,2,2,1,3,2,4,2,5,1,2,9,5,2,1,8,3,3,4,2,2,2,6,3,4,3,3,4,2,4,3,3,3,2,4,2,5,1,2,4,1,2,1,5,3,3,2,1,4,2,1,1,3,5,4,4,4]
